741627
731468
731468
731468
730812
728888
722873
719726
707146
704680
704680
704680
704680
704680
702373
701392
694090
694090
688295
687827
687827
681347
681347
681347
681347
681142
681142
681142
681142
681142
681142
679224
679224
679224
679224
679224
679224
679224
679224
679224
679224
679224
679224
679224
679224
679224
679224
679224
679224
679224
679224
679224
679224
679224
679224
679224
679224
679224
679224
679224
679224
679224
679224
679224
679224
679224
679224
679224
679224
679224
679224
679224
679224
679224
679224
679224
679224
679224
679224
679224
679224
679224
679224
679224
679224
679224
679224
679224
679224
679224
679224
679224
679224
679224
679224
679224
679224
679224
679224
679224
